243/surrogate_problem/sol/surrogate2_24.sol
# Solution for model problem_
# Objective value = 2.2450113824360925e+05
x(0_0) 0
x(0_1) 0
x(0_2) 0
x(0_3) 0
x(0_4) 0
x(0_5) 0
x(0_6) 0
x(0_7) 0
x(0_8) 0
x(0_9) 0
x(0_10) 0
x(0_11) 1
x(0_12) 0
x(0_13) 0
x(1_14) 0
x(1_15) 0
x(1_16) 0
x(1_17) 0
x(1_18) 1
x(1_19) 0
x(1_20) 0
x(1_21) 0
x(1_22) 0
x(1_23) 0
x(1_24) 0
x(2_25) 0
x(2_26) 0
x(2_27) 0
x(2_28) 0
x(2_29) 1
x(2_30) 0
x(2_31) 0
x(2_32) 0
x(2_33) 0
x(2_34) 0
x(2_35) 0
x(2_36) 0
x(2_37) 0
x(2_38) 0
x(2_39) 0
x(3_40) 0
x(3_41) 1
x(3_42) 0
x(3_43) 0
x(3_44) 0
x(3_45) 0
x(3_46) 0
x(3_47) 0
x(3_48) 0
x(3_49) 0
x(3_50) 0
x(3_51) 0
x(3_52) 0
x(3_53) 0
x(4_54) 0
x(4_55) 0
x(4_56) 0
x(4_57) 0
x(4_58) 0
x(4_59) 0
x(4_60) 0
x(4_61) 0
x(4_62) 0
x(4_63) 0
x(4_64) 0
x(4_65) 0
x(4_66) 0
x(4_67) 1
x(4_68) 0
x(5_69) 0
x(5_70) 0
x(5_71) 1
x(5_72) 0
x(5_73) 0
x(5_74) 0
x(5_75) 0
x(5_76) 0
x(5_77) 0
x(5_78) 0
x(5_79) 0
x(6_80) 0
x(6_81) 0
x(6_82) 0
x(6_83) 0
x(6_84) 1
x(6_85) 0
x(6_86) 0
x(6_87) 0
x(6_88) 0
x(6_89) 0
x(6_90) 0
x(7_91) 0
x(7_92) 0
x(7_93) 0
x(7_94) 0
x(7_95) 0
x(7_96) 0
x(7_97) 0
x(7_98) 0
x(7_99) 0
x(7_100) 0
x(7_101) 0
x(7_102) 0
x(7_103) 1
x(7_104) 0
x(7_105) 0
x(7_106) 0
x(7_107) 0
x(7_108) 0
x(7_109) 0
x(8_110) 0
x(8_111) 0
x(8_112) 0
x(8_113) 0
x(8_114) 0
x(8_115) 0
x(8_116) 0
x(8_117) 1
x(8_118) 0
x(8_119) 0
x(8_120) 0
x(8_121) 0
x(8_122) 0
x(8_123) 0
x(8_124) 0
x(8_125) 0
x(8_126) 0
x(8_127) 0
x(9_128) 1
x(9_129) 0
x(9_130) 0
x(9_131) 0
x(9_132) 0
x(9_133) 0
x(9_134) 0
x(9_135) 0
x(9_136) 0
x(9_137) 0
x(9_138) 0
x(9_139) 0
x(9_140) 0
x(9_141) 0
x(9_142) 0
x(9_143) 0
x(10_144) 0
x(10_145) 0
x(10_146) 0
x(10_147) 0
x(10_148) 0
x(10_149) 0
x(10_150) 1
x(10_151) 0
x(10_152) 0
x(10_153) 0
x(10_154) 0
x(10_155) 0
x(10_156) 0
x(10_157) 0
x(10_158) 0
x(11_159) 0
x(11_160) 0
x(11_161) 0
x(11_162) 0
x(11_163) 0
x(11_164) 0
x(11_165) 0
x(11_166) 1
x(11_167) 0
x(11_168) 0
x(12_169) 0
x(12_170) 0
x(12_171) 0
x(12_172) 0
x(12_173) 0
x(12_174) 0
x(12_175) 0
x(12_176) 0
x(12_177) 0
x(12_178) 1
x(12_179) 0
x(12_180) 0
x(12_181) 0
x(12_182) 0
x(13_183) 0
x(13_184) 0
x(13_185) 0
x(13_186) 0
x(13_187) 0
x(13_188) 0
x(13_189) 0
x(13_190) 0
x(13_191) 0
x(13_192) 0
x(13_193) 0
x(13_194) 0
x(13_195) 0
x(13_196) 1
x(13_197) 0
x(13_198) 0
x(13_199) 0
x(14_200) 0
x(14_201) 0
x(14_202) 0
x(14_203) 0
x(14_204) 1
x(14_205) 0
x(14_206) 0
x(14_207) 0
x(14_208) 0
x(14_209) 0
x(14_210) 0
x(14_211) 0
x(14_212) 0
x(14_213) 0
x(14_214) 0
x(14_215) 0
x(14_216) 0
x(14_217) 0
x(14_218) 0
x(15_219) 0
x(15_220) 0
x(15_221) 0
x(15_222) 0
x(15_223) 0
x(15_224) 0
x(15_225) 0
x(15_226) 1
x(15_227) 0
x(15_228) 0
x(15_229) 0
x(16_230) 0
x(16_231) 1
x(16_232) 0
x(16_233) 0
x(16_234) 0
x(16_235) 0
x(16_236) 0
x(16_237) 0
x(16_238) 0
x(16_239) 0
x(17_240) 0
x(17_241) 0
x(17_242) 0
x(17_243) 1
x(17_244) 0
x(17_245) 0
x(17_246) 0
x(17_247) 0
x(17_248) 0
x(17_249) 0
x(17_250) 0
x(17_251) 0
x(17_252) 0
x(17_253) 0
x(18_254) 0
x(18_255) 0
x(18_256) 0
x(18_257) 0
x(18_258) 0
x(18_259) 0
x(18_260) 0
x(18_261) 0
x(18_262) 0
x(18_263) 0
x(18_264) 1
x(18_265) 0
x(18_266) 0
x(18_267) 0
x(18_268) 0
x(18_269) 0
x(19_270) 1
x(19_271) 0
x(19_272) 0
x(19_273) 0
x(19_274) 0
x(19_275) 0
x(19_276) 0
x(19_277) 0
x(19_278) 0
x(19_279) 0
x(19_280) 0
x(19_281) 0
x(19_282) 0
x(19_283) 0
x(19_284) 0
x(19_285) 0
x(19_286) 0
x(19_287) 0
x(19_288) 0
x(20_289) 1
x(20_290) 0
x(20_291) 0
x(20_292) 0
x(20_293) 0
x(20_294) 0
x(20_295) 0
x(20_296) 0
x(20_297) 0
x(20_298) 0
x(20_299) 0
x(20_300) 0
x(20_301) 0
x(20_302) 0
x(20_303) 0
x(21_304) 0
x(21_305) 0
x(21_306) 0
x(21_307) 0
x(21_308) 0
x(21_309) 0
x(21_310) 1
x(21_311) 0
x(21_312) 0
x(21_313) 0
x(21_314) 0
x(21_315) 0
x(21_316) 0
x(21_317) 0
x(21_318) 0
x(21_319) 0
x(22_320) 0
x(22_321) 0
x(22_322) 0
x(22_323) 0
x(22_324) 0
x(22_325) 0
x(22_326) 0
x(22_327) 0
x(22_328) 0
x(22_329) 0
x(22_330) 0
x(22_331) 0
x(22_332) 1
x(22_333) 0
x(22_334) 0
x(22_335) 0
x(22_336) 0
x(23_337) 0
x(23_338) 0
x(23_339) 0
x(23_340) 0
x(23_341) 0
x(23_342) 0
x(23_343) 0
x(23_344) 0
x(23_345) 0
x(23_346) 0
x(23_347) 0
x(23_348) 1
x(23_349) 0
x(23_350) 0
x(23_351) 0
x(23_352) 0
x(23_353) 0
x(23_354) 0
x(23_355) 0
x(23_356) 0
x(24_357) 0
x(24_358) 0
x(24_359) 0
x(24_360) 0
x(24_361) 0
x(24_362) 0
x(24_363) 0
x(24_364) 0
x(24_365) 0
x(24_366) 0
x(24_367) 0
x(24_368) 1
x(24_369) 0
x(25_370) 0
x(25_371) 0
x(25_372) 0
x(25_373) 0
x(25_374) 0
x(25_375) 0
x(25_376) 0
x(25_377) 0
x(25_378) 0
x(25_379) 0
x(25_380) 0
x(25_381) 0
x(25_382) 0
x(25_383) 1
x(25_384) 0
x(25_385) 0
x(25_386) 0
x(25_387) 0
x(25_388) 0
x(26_389) 0
x(26_390) 1
x(26_391) 0
x(26_392) 0
x(26_393) 0
x(26_394) 0
x(26_395) 0
x(26_396) 0
x(26_397) 0
x(26_398) 0
x(26_399) 0
x(26_400) 0
x(26_401) 0
x(26_402) 0
x(26_403) 0
x(27_404) 0
x(27_405) 0
x(27_406) 0
x(27_407) 0
x(27_408) 0
x(27_409) 0
x(27_410) 0
x(27_411) 0
x(27_412) 0
x(27_413) 0
x(27_414) 0
x(27_415) 0
x(27_416) 1
x(27_417) 0
x(27_418) 0
x(27_419) 0
x(27_420) 0
x(28_421) 0
x(28_422) 0
x(28_423) 0
x(28_424) 0
x(28_425) 0
x(28_426) 0
x(28_427) 0
x(28_428) 0
x(28_429) 0
x(28_430) 1
x(29_431) 0
x(29_432) 0
x(29_433) 0
x(29_434) 0
x(29_435) 0
x(29_436) 0
x(29_437) 0
x(29_438) 1
x(29_439) 0
x(29_440) 0
x(29_441) 0
x(29_442) 0
x(29_443) 0
x(30_444) 0
x(30_445) 0
x(30_446) 0
x(30_447) 0
x(30_448) 0
x(30_449) 0
x(30_450) 0
x(30_451) 1
x(30_452) 0
x(30_453) 0
x(31_454) 0
x(31_455) 0
x(31_456) 0
x(31_457) 0
x(31_458) 0
x(31_459) 0
x(31_460) 0
x(31_461) 0
x(31_462) 0
x(31_463) 0
x(31_464) 1
x(32_465) 0
x(32_466) 0
x(32_467) 0
x(32_468) 0
x(32_469) 0
x(32_470) 0
x(32_471) 0
x(32_472) 0
x(32_473) 0
x(32_474) 0
x(32_475) 1
x(32_476) 0
x(33_477) 0
x(33_478) 1
x(33_479) 0
x(33_480) 0
x(33_481) 0
x(33_482) 0
x(33_483) 0
x(33_484) 0
x(33_485) 0
x(33_486) 0
x(33_487) 0
x(33_488) 0
x(33_489) 0
x(33_490) 0
x(34_491) 0
x(34_492) 0
x(34_493) 0
x(34_494) 0
x(34_495) 0
x(34_496) 0
x(34_497) 0
x(34_498) 0
x(34_499) 0
x(34_500) 1
x(34_501) 0
x(35_502) 0
x(35_503) 0
x(35_504) 0
x(35_505) 0
x(35_506) 0
x(35_507) 0
x(35_508) 0
x(35_509) 1
x(35_510) 0
x(35_511) 0
x(35_512) 0
x(35_513) 0
x(35_514) 0
x(35_515) 0
x(35_516) 0
x(35_517) 0
x(35_518) 0
x(35_519) 0
x(36_520) 0
x(36_521) 0
x(36_522) 0
x(36_523) 0
x(36_524) 0
x(36_525) 0
x(36_526) 0
x(36_527) 0
x(36_528) 0
x(36_529) 0
x(36_530) 0
x(36_531) 0
x(36_532) 0
x(36_533) 0
x(36_534) 0
x(36_535) 1
x(36_536) 0
x(36_537) 0
x(37_538) 0
x(37_539) 0
x(37_540) 0
x(37_541) 0
x(37_542) 0
x(37_543) 0
x(37_544) 0
x(37_545) 0
x(37_546) 0
x(37_547) 0
x(37_548) 0
x(37_549) 0
x(37_550) 0
x(37_551) 0
x(37_552) 0
x(37_553) 0
x(37_554) 1
x(37_555) 0
x(37_556) 0
x(38_557) 0
x(38_558) 0
x(38_559) 0
x(38_560) 0
x(38_561) 0
x(38_562) 0
x(38_563) 0
x(38_564) 1
x(38_565) 0
x(38_566) 0
x(38_567) 0
x(39_568) 0
x(39_569) 0
x(39_570) 0
x(39_571) 0
x(39_572) 0
x(39_573) 1
x(39_574) 0
x(39_575) 0
x(39_576) 0
x(39_577) 0
x(39_578) 0
x(39_579) 0
x(39_580) 0
x(40_581) 0
x(40_582) 0
x(40_583) 0
x(40_584) 0
x(40_585) 0
x(40_586) 0
x(40_587) 0
x(40_588) 0
x(40_589) 1
x(40_590) 0
x(40_591) 0
x(41_592) 0
x(41_593) 0
x(41_594) 0
x(41_595) 0
x(41_596) 0
x(41_597) 1
x(41_598) 0
x(41_599) 0
x(41_600) 0
x(41_601) 0
x(41_602) 0
x(41_603) 0
x(41_604) 0
x(41_605) 0
x(41_606) 0
x(41_607) 0
x(41_608) 0
x(42_609) 0
x(42_610) 1
x(42_611) 0
x(42_612) 0
x(42_613) 0
x(42_614) 0
x(42_615) 0
x(42_616) 0
x(42_617) 0
x(42_618) 0
x(42_619) 0
x(42_620) 0
x(42_621) 0
x(42_622) 0
x(43_623) 0
x(43_624) 0
x(43_625) 0
x(43_626) 0
x(43_627) 0
x(43_628) 0
x(43_629) 1
x(43_630) 0
x(43_631) 0
x(43_632) 0
x(43_633) 0
x(43_634) 0
x(43_635) 0
x(43_636) 0
x(44_637) 0
x(44_638) 0
x(44_639) 0
x(44_640) 0
x(44_641) 0
x(44_642) 0
x(44_643) 0
x(44_644) 0
x(44_645) 0
x(44_646) 1
x(44_647) 0
x(44_648) 0
x(44_649) 0
x(44_650) 0
x(44_651) 0
x(44_652) 0
x(44_653) 0
x(44_654) 0
x(44_655) 0
x(44_656) 0
x(45_657) 0
x(45_658) 0
x(45_659) 1
x(45_660) 0
x(45_661) 0
x(45_662) 0
x(45_663) 0
x(45_664) 0
x(45_665) 0
x(45_666) 0
x(45_667) 0
x(45_668) 0
x(46_669) 1
x(46_670) 0
x(46_671) 0
x(46_672) 0
x(46_673) 0
x(46_674) 0
x(46_675) 0
x(46_676) 0
x(46_677) 0
x(46_678) 0
x(46_679) 0
x(47_680) 0
x(47_681) 0
x(47_682) 0
x(47_683) 1
x(47_684) 0
x(47_685) 0
x(47_686) 0
x(47_687) 0
x(47_688) 0
x(47_689) 0
x(47_690) 0
x(47_691) 0
x(48_692) 0
x(48_693) 0
x(48_694) 0
x(48_695) 0
x(48_696) 0
x(48_697) 0
x(48_698) 0
x(48_699) 0
x(48_700) 1
x(48_701) 0
x(48_702) 0
x(48_703) 0
x(48_704) 0
x(48_705) 0
x(48_706) 0
x(48_707) 0
x(48_708) 0
x(48_709) 0
x(48_710) 0
x(49_711) 0
x(49_712) 0
x(49_713) 0
x(49_714) 0
x(49_715) 0
x(49_716) 0
x(49_717) 0
x(49_718) 0
x(49_719) 0
x(49_720) 0
x(49_721) 0
x(49_722) 0
x(49_723) 0
x(49_724) 1
x(50_725) 0
x(50_726) 0
x(50_727) 0
x(50_728) 0
x(50_729) 0
x(50_730) 0
x(50_731) 1
x(50_732) 0
x(50_733) 0
x(50_734) 0
x(50_735) 0
x(51_736) 0
x(51_737) 0
x(51_738) 0
x(51_739) 0
x(51_740) 0
x(51_741) 0
x(51_742) 0
x(51_743) 0
x(51_744) 0
x(51_745) 0
x(51_746) 0
x(51_747) 0
x(51_748) 0
x(51_749) 1
x(51_750) 0
x(51_751) 0
x(52_752) 0
x(52_753) 1
x(52_754) 0
x(52_755) 0
x(52_756) 0
x(52_757) 0
x(52_758) 0
x(52_759) 0
x(52_760) 0
x(52_761) 0
x(52_762) 0
x(52_763) 0
x(52_764) 0
x(53_765) 1
x(53_766) 0
x(53_767) 0
x(53_768) 0
x(53_769) 0
x(53_770) 0
x(53_771) 0
x(53_772) 0
x(53_773) 0
x(53_774) 0
x(53_775) 0
x(53_776) 0
x(53_777) 0
x(53_778) 0
x(53_779) 0
x(53_780) 0
x(53_781) 0
x(54_782) 0
x(54_783) 0
x(54_784) 0
x(54_785) 0
x(54_786) 0
x(54_787) 0
x(54_788) 0
x(54_789) 0
x(54_790) 0
x(54_791) 1
x(54_792) 0
x(55_793) 0
x(55_794) 0
x(55_795) 0
x(55_796) 0
x(55_797) 0
x(55_798) 0
x(55_799) 0
x(55_800) 0
x(55_801) 0
x(55_802) 0
x(55_803) 0
x(55_804) 0
x(55_805) 0
x(55_806) 1
x(55_807) 0
x(55_808) 0
x(56_809) 0
x(56_810) 0
x(56_811) 0
x(56_812) 0
x(56_813) 1
x(56_814) 0
x(56_815) 0
x(56_816) 0
x(56_817) 0
x(56_818) 0
x(57_819) 0
x(57_820) 0
x(57_821) 0
x(57_822) 0
x(57_823) 0
x(57_824) 0
x(57_825) 0
x(57_826) 0
x(57_827) 0
x(57_828) 1
x(57_829) 0
x(58_830) 0
x(58_831) 1
x(58_832) 0
x(58_833) 0
x(58_834) 0
x(58_835) 0
x(58_836) 0
x(58_837) 0
x(58_838) 0
x(58_839) 0
x(58_840) 0
x(58_841) 0
x(58_842) 0
x(58_843) 0
x(58_844) 0
x(58_845) 0
x(58_846) 0
x(59_847) 0
x(59_848) 1
x(59_849) 0
x(59_850) 0
x(59_851) 0
x(59_852) 0
x(59_853) 0
x(59_854) 0
x(59_855) 0
x(59_856) 0
x(60_857) 0
x(60_858) 0
x(60_859) 0
x(60_860) 0
x(60_861) 0
x(60_862) 0
x(60_863) 0
x(60_864) 0
x(60_865) 0
x(60_866) 1
x(60_867) 0
x(60_868) 0
x(60_869) 0
x(61_870) 0
x(61_871) 0
x(61_872) 0
x(61_873) 0
x(61_874) 0
x(61_875) 0
x(61_876) 0
x(61_877) 0
x(61_878) 0
x(61_879) 0
x(61_880) 1
x(61_881) 0
x(61_882) 0
x(61_883) 0
x(61_884) 0
x(61_885) 0
x(61_886) 0
x(62_887) 0
x(62_888) 0
x(62_889) 1
x(62_890) 0
x(62_891) 0
x(62_892) 0
x(62_893) 0
x(62_894) 0
x(62_895) 0
x(62_896) 0
x(62_897) 0
x(62_898) 0
x(62_899) 0
x(62_900) 0
x(62_901) 0
x(62_902) 0
x(62_903) 0
x(62_904) 0
x(62_905) 0
x(63_906) 0
x(63_907) 0
x(63_908) 0
x(63_909) 0
x(63_910) 0
x(63_911) 0
x(63_912) 0
x(63_913) 1
x(63_914) 0
x(63_915) 0
x(63_916) 0
x(63_917) 0
x(63_918) 0
x(63_919) 0
x(63_920) 0
x(63_921) 0
x(63_922) 0
x(63_923) 0
x(64_924) 0
x(64_925) 0
x(64_926) 0
x(64_927) 0
x(64_928) 0
x(64_929) 0
x(64_930) 0
x(64_931) 0
x(64_932) 0
x(64_933) 0
x(64_934) 0
x(64_935) 0
x(64_936) 0
x(64_937) 0
x(64_938) 0
x(64_939) 0
x(64_940) 0
x(64_941) 1
x(65_942) 0
x(65_943) 0
x(65_944) 0
x(65_945) 0
x(65_946) 0
x(65_947) 0
x(65_948) 0
x(65_949) 1
x(65_950) 0
x(65_951) 0
x(65_952) 0
x(65_953) 0
x(65_954) 0
x(65_955) 0
x(65_956) 0
x(66_957) 0
x(66_958) 0
x(66_959) 0
x(66_960) 0
x(66_961) 0
x(66_962) 1
x(66_963) 0
x(66_964) 0
x(66_965) 0
x(66_966) 0
x(66_967) 0
x(67_968) 0
x(67_969) 0
x(67_970) 0
x(67_971) 0
x(67_972) 0
x(67_973) 1
x(67_974) 0
x(67_975) 0
x(67_976) 0
x(67_977) 0
x(67_978) 0
x(67_979) 0
x(67_980) 0
x(67_981) 0
x(68_982) 0
x(68_983) 0
x(68_984) 0
x(68_985) 1
x(68_986) 0
x(68_987) 0
x(68_988) 0
x(68_989) 0
x(68_990) 0
x(68_991) 0
x(69_992) 0
x(69_993) 0
x(69_994) 0
x(69_995) 0
x(69_996) 0
x(69_997) 0
x(69_998) 0
x(69_999) 1
x(69_1000) 0
x(69_1001) 0
x(70_1002) 0
x(70_1003) 0
x(70_1004) 0
x(70_1005) 0
x(70_1006) 0
x(70_1007) 0
x(70_1008) 1
x(70_1009) 0
x(70_1010) 0
x(70_1011) 0
x(71_1012) 0
x(71_1013) 0
x(71_1014) 0
x(71_1015) 0
x(71_1016) 0
x(71_1017) 0
x(71_1018) 0
x(71_1019) 0
x(71_1020) 0
x(71_1021) 0
x(71_1022) 1
x(71_1023) 0
x(71_1024) 0
x(71_1025) 0
x(71_1026) 0
x(72_1027) 0
x(72_1028) 0
x(72_1029) 0
x(72_1030) 0
x(72_1031) 0
x(72_1032) 0
x(72_1033) 0
x(72_1034) 1
x(72_1035) 0
x(72_1036) 0
x(72_1037) 0
x(73_1038) 0
x(73_1039) 0
x(73_1040) 0
x(73_1041) 1
x(73_1042) 0
x(73_1043) 0
x(73_1044) 0
x(73_1045) 0
x(73_1046) 0
x(73_1047) 0
x(73_1048) 0
x(73_1049) 0
x(73_1050) 0
x(73_1051) 0
x(74_1052) 0
x(74_1053) 0
x(74_1054) 0
x(74_1055) 0
x(74_1056) 0
x(74_1057) 0
x(74_1058) 0
x(74_1059) 0
x(74_1060) 0
x(74_1061) 0
x(74_1062) 0
x(74_1063) 0
x(74_1064) 0
x(74_1065) 0
x(74_1066) 0
x(74_1067) 0
x(74_1068) 0
x(74_1069) 1
x(75_1070) 0
x(75_1071) 0
x(75_1072) 0
x(75_1073) 0
x(75_1074) 0
x(75_1075) 0
x(75_1076) 0
x(75_1077) 0
x(75_1078) 0
x(75_1079) 0
x(75_1080) 0
x(75_1081) 1
x(76_1082) 0
x(76_1083) 0
x(76_1084) 0
x(76_1085) 0
x(76_1086) 0
x(76_1087) 0
x(76_1088) 0
x(76_1089) 0
x(76_1090) 0
x(76_1091) 0
x(76_1092) 0
x(76_1093) 0
x(76_1094) 1
x(76_1095) 0
x(76_1096) 0
x(76_1097) 0
x(76_1098) 0
x(76_1099) 0
x(77_1100) 0
x(77_1101) 0
x(77_1102) 1
x(77_1103) 0
x(77_1104) 0
x(77_1105) 0
x(77_1106) 0
x(77_1107) 0
x(77_1108) 0
x(77_1109) 0
x(77_1110) 0
x(77_1111) 0
x(78_1112) 0
x(78_1113) 0
x(78_1114) 1
x(78_1115) 0
x(78_1116) 0
x(78_1117) 0
x(78_1118) 0
x(78_1119) 0
x(78_1120) 0
x(78_1121) 0
x(78_1122) 0
x(78_1123) 0
x(78_1124) 0
x(78_1125) 0
x(78_1126) 0
x(78_1127) 0
x(79_1128) 0
x(79_1129) 0
x(79_1130) 0
x(79_1131) 0
x(79_1132) 0
x(79_1133) 0
x(79_1134) 1
x(79_1135) 0
x(79_1136) 0
x(79_1137) 0
x(79_1138) 0
x(79_1139) 0
x(79_1140) 0
x(79_1141) 0
x(79_1142) 0
x(80_1143) 0
x(80_1144) 0
x(80_1145) 0
x(80_1146) 0
x(80_1147) 0
x(80_1148) 0
x(80_1149) 0
x(80_1150) 0
x(80_1151) 0
x(80_1152) 0
x(80_1153) 1
x(80_1154) 0
x(80_1155) 0
x(80_1156) 0
x(80_1157) 0
x(80_1158) 0
x(80_1159) 0
x(80_1160) 0
x(80_1161) 0
x(81_1162) 0
x(81_1163) 0
x(81_1164) 0
x(81_1165) 0
x(81_1166) 0
x(81_1167) 0
x(81_1168) 0
x(81_1169) 0
x(81_1170) 0
x(81_1171) 0
x(81_1172) 0
x(81_1173) 0
x(81_1174) 0
x(81_1175) 0
x(81_1176) 1
x(82_1177) 0
x(82_1178) 0
x(82_1179) 0
x(82_1180) 0
x(82_1181) 0
x(82_1182) 0
x(82_1183) 0
x(82_1184) 1
x(82_1185) 0
x(82_1186) 0
x(83_1187) 0
x(83_1188) 0
x(83_1189) 0
x(83_1190) 0
x(83_1191) 0
x(83_1192) 0
x(83_1193) 0
x(83_1194) 0
x(83_1195) 0
x(83_1196) 0
x(83_1197) 0
x(83_1198) 0
x(83_1199) 0
x(83_1200) 0
x(83_1201) 0
x(83_1202) 0
x(83_1203) 0
x(83_1204) 0
x(83_1205) 0
x(83_1206) 1
x(84_1207) 0
x(84_1208) 0
x(84_1209) 0
x(84_1210) 0
x(84_1211) 0
x(84_1212) 0
x(84_1213) 0
x(84_1214) 0
x(84_1215) 0
x(84_1216) 0
x(84_1217) 0
x(84_1218) 0
x(84_1219) 0
x(84_1220) 1
x(84_1221) 0
x(84_1222) 0
x(84_1223) 0
x(84_1224) 0
x(85_1225) 0
x(85_1226) 0
x(85_1227) 0
x(85_1228) 0
x(85_1229) 0
x(85_1230) 0
x(85_1231) 0
x(85_1232) 0
x(85_1233) 0
x(85_1234) 0
x(85_1235) 1
x(85_1236) 0
x(85_1237) 0
x(86_1238) 0
x(86_1239) 0
x(86_1240) 0
x(86_1241) 0
x(86_1242) 0
x(86_1243) 0
x(86_1244) 0
x(86_1245) 0
x(86_1246) 0
x(86_1247) 1
x(86_1248) 0
x(86_1249) 0
x(86_1250) 0
x(86_1251) 0
x(86_1252) 0
x(86_1253) 0
x(86_1254) 0
x(86_1255) 0
x(86_1256) 0
x(86_1257) 0
x(87_1258) 0
x(87_1259) 0
x(87_1260) 0
x(87_1261) 0
x(87_1262) 0
x(87_1263) 0
x(87_1264) 0
x(87_1265) 0
x(87_1266) 0
x(87_1267) 1
x(87_1268) 0
x(87_1269) 0
x(87_1270) 0
x(87_1271) 0
x(87_1272) 0
x(87_1273) 0
x(87_1274) 0
x(87_1275) 0
x(87_1276) 0
x(88_1277) 0
x(88_1278) 0
x(88_1279) 0
x(88_1280) 0
x(88_1281) 0
x(88_1282) 0
x(88_1283) 0
x(88_1284) 0
x(88_1285) 0
x(88_1286) 0
x(88_1287) 1
x(88_1288) 0
x(88_1289) 0
x(88_1290) 0
x(88_1291) 0
x(88_1292) 0
x(88_1293) 0
x(88_1294) 0
x(88_1295) 0
x(89_1296) 0
x(89_1297) 0
x(89_1298) 1
x(89_1299) 0
x(89_1300) 0
x(89_1301) 0
x(89_1302) 0
x(89_1303) 0
x(89_1304) 0
x(89_1305) 0
x(89_1306) 0
x(89_1307) 0
x(89_1308) 0
x(89_1309) 0
x(90_1310) 0
x(90_1311) 0
x(90_1312) 0
x(90_1313) 0
x(90_1314) 0
x(90_1315) 0
x(90_1316) 0
x(90_1317) 0
x(90_1318) 0
x(90_1319) 0
x(90_1320) 0
x(90_1321) 0
x(90_1322) 0
x(90_1323) 1
x(90_1324) 0
x(90_1325) 0
x(90_1326) 0
x(90_1327) 0
x(91_1328) 0
x(91_1329) 0
x(91_1330) 0
x(91_1331) 0
x(91_1332) 0
x(91_1333) 1
x(91_1334) 0
x(91_1335) 0
x(91_1336) 0
x(91_1337) 0
x(91_1338) 0
x(91_1339) 0
x(91_1340) 0
x(91_1341) 0
x(91_1342) 0
x(91_1343) 0
x(91_1344) 0
x(92_1345) 0
x(92_1346) 0
x(92_1347) 0
x(92_1348) 0
x(92_1349) 0
x(92_1350) 0
x(92_1351) 0
x(92_1352) 0
x(92_1353) 1
x(92_1354) 0
x(92_1355) 0
x(92_1356) 0
x(92_1357) 0
x(93_1358) 0
x(93_1359) 0
x(93_1360) 0
x(93_1361) 0
x(93_1362) 1
x(93_1363) 0
x(93_1364) 0
x(93_1365) 0
x(93_1366) 0
x(93_1367) 0
x_1_0 0
s_1_0 6.9658707315102220e-01
z_1_0 1
x_1_1 4.1086404696293175e+02
s_1_1 0
z_1_1 0
x_1_2 0
s_1_2 0.872387673065532
z_1_2 1
x_1_3 4.1125122421234846e+02
s_1_3 0
z_1_3 0
x_1_4 0
s_1_4 4.6126224982435815e-01
z_1_4 1
x_1_5 4.0891781095368788e+02
s_1_5 0
z_1_5 0
x_1_6 2.4632858694531024e-02
s_1_6 0
z_1_6 0
x_1_7 0
s_1_7 9.0489990012429189e-01
z_1_7 1
x_1_8 0
s_1_8 1.1890449256752618e+00
z_1_8 1
x_1_9 0
s_1_9 6.7619536901474930e-01
z_1_9 1
x_1_10 4.1080383527232334e+02
s_1_10 0
z_1_10 0
x_1_11 0
s_1_11 1.2730818075069692e+00
z_1_11 1
x_1_12 0
s_1_12 2.1272682379931211e+00
z_1_12 1
x_1_13 0
s_1_13 6.1157397239003330e-01
z_1_13 1
x_1_14 4.1065287840389647e+02
s_1_14 0
z_1_14 0
x_1_15 4.0861042345222086e+02
s_1_15 0
z_1_15 0
x_1_16 4.1098957881238312e+02
s_1_16 0
z_1_16 0
x_1_17 0
s_1_17 4.2960115792811848e-01
z_1_17 1
x_1_18 413.475089377258
s_1_18 0
z_1_18 0
x_1_19 4.1400607830402441e+02
s_1_19 0
z_1_19 0
x_1_20 0
s_1_20 7.5746936931682285e-01
z_1_20 1
x_1_21 0
s_1_21 8.2308767150243511e-01
z_1_21 1
x_1_22 4.1413015075679868e+02
s_1_22 0
z_1_22 0
x_1_23 0
s_1_23 9.5697372965514660e-01
z_1_23 1
x_1_24 4.0872810226120055e+02
s_1_24 0
z_1_24 0
x_1_25 0
s_1_25 9.2605591157189338e-01
z_1_25 1
x_1_26 0
s_1_26 6.3038958012475632e-01
z_1_26 1
x_1_27 0
s_1_27 1.0051785734540317e+00
z_1_27 1
x_1_28 0
s_1_28 1.1823684442060767e+00
z_1_28 1
x_1_29 4.1305094069323604e+02
s_1_29 0
z_1_29 0
x_1_30 4.1290318101737648e+02
s_1_30 0
z_1_30 0
x_1_31 4.1081338774878532e+02
s_1_31 0
z_1_31 0
x_1_32 0
s_1_32 6.4789588763960637e-01
z_1_32 1
x_1_33 0
s_1_33 1.0276649003317289e+00
z_1_33 1
x_1_34 4.1229653969313949e+02
s_1_34 0
z_1_34 0
x_1_35 4.1094890931295231e+02
s_1_35 0
z_1_35 0
x_1_36 4.0812667963560671e+02
s_1_36 0
z_1_36 0
x_1_37 4.1354920363053679e+02
s_1_37 0
z_1_37 0
x_1_38 0
s_1_38 2.1779912284982856e+00
z_1_38 1
x_1_39 4.1153546359343454e+02
s_1_39 0
z_1_39 0
x_1_40 0
s_1_40 1.4619527010363527e+00
z_1_40 1
x_1_41 408.348535541445
s_1_41 0
z_1_41 0
x_1_42 4.1258228671830148e+02
s_1_42 0
z_1_42 0
x_1_43 4.0753630994632840e+02
s_1_43 0
z_1_43 0
x_1_44 0
s_1_44 1.5730439727485646e+00
z_1_44 1
x_1_45 4.1010378200933337e+02
s_1_45 0
z_1_45 0
x_1_46 0
s_1_46 6.7960478395980317e-01
z_1_46 1
x_1_47 4.1313666105642915e+02
s_1_47 0
z_1_47 0
x_1_48 0
s_1_48 7.1545720487483777e-01
z_1_48 1
x_1_49 0
s_1_49 1.9076080790400738e+00
z_1_49 1
x_1_50 4.0938279451429844e+02
s_1_50 0
z_1_50 0
x_1_51 0
s_1_51 9.6694037641282193e-01
z_1_51 1
x_1_52 4.1396463057026267e+02
s_1_52 0
z_1_52 0
x_1_53 0
s_1_53 4.9465101886744378e-01
z_1_53 1
x_1_54 0
s_1_54 1.2908004421406076e+00
z_1_54 1
x_1_55 0
s_1_55 1.7798818941810168e+00
z_1_55 1
x_1_56 4.0813118008337915e+02
s_1_56 0
z_1_56 0
x_1_57 0
s_1_57 1.6107895054447
z_1_57 1
x_1_58 4.1306343088019639e+02
s_1_58 0
z_1_58 0
x_1_59 4.1345062898844481e+02
s_1_59 0
z_1_59 0
x_1_60 4.0848170739505440e+02
s_1_60 0
z_1_60 0
x_1_61 0
s_1_61 1.2706224912835751e+00
z_1_61 1
x_1_62 0
s_1_62 5.6934812120744027e-01
z_1_62 1
x_1_63 0
s_1_63 4.7868846486380789e-01
z_1_63 1
x_1_64 4.1135908765904605e+02
s_1_64 0
z_1_64 0
x_1_65 4.1084151282534003e+02
s_1_65 0
z_1_65 0
x_1_66 0
s_1_66 9.3576761672738940e-01
z_1_66 1
x_1_67 4.1385873936302960e+02
s_1_67 0
z_1_67 0
x_1_68 4.1130055786194862e+02
s_1_68 0
z_1_68 0
x_1_69 4.1397869210022145e+02
s_1_69 0
z_1_69 0
x_1_70 0
s_1_70 1.4673804679769091e+00
z_1_70 1
x_1_71 0
s_1_71 9.6772465305548394e-01
z_1_71 1
x_1_72 4.0900975070241839e+02
s_1_72 0
z_1_72 0
x_1_73 4.0935410470888019e+02
s_1_73 0
z_1_73 0
x_1_74 0
s_1_74 0.590078599518165
z_1_74 1
x_1_75 4.1176574343722314e+02
s_1_75 0
z_1_75 0
x_1_76 0
s_1_76 1.4053410441265441e+00
z_1_76 1
x_1_77 4.1307653477555141e+02
s_1_77 0
z_1_77 0
x_1_78 0
s_1_78 1.2641555955706281e+00
z_1_78 1
x_1_79 4.1176243659574538e+02
s_1_79 0
z_1_79 0
x_1_80 0
s_1_80 1.5304070148122264e+00
z_1_80 1
x_1_81 4.1273029127344489e+02
s_1_81 0
z_1_81 0
x_1_82 0
s_1_82 8.7754503829637542e-01
z_1_82 1
x_1_83 4.0819600353203714e+02
s_1_83 0
z_1_83 0
x_1_84 0
s_1_84 8.2699470079387538e-01
z_1_84 1
x_1_85 4.0775185049045831e+02
s_1_85 0
z_1_85 0
x_1_86 4.0940132965438534e+02
s_1_86 0
z_1_86 0
x_1_87 4.1112050055339932e+02
s_1_87 0
z_1_87 0
x_1_88 0
s_1_88 0.673850383842364
z_1_88 1
x_1_89 4.0888318041805178e+02
s_1_89 0
z_1_89 0
x_1_90 4.1089240720309317e+02
s_1_90 0
z_1_90 0
x_1_91 0
s_1_91 1.2008535128552467e+00
z_1_91 1
x_1_92 0
s_1_92 1.2649647507041664e+00
z_1_92 1
x_1_93 0
s_1_93 7.3679551549503230e-01
z_1_93 1
x_1_94 0
s_1_94 1.3948498135268892e+00
z_1_94 1
x_1_95 0
s_1_95 4.9760518188122660e-01
z_1_95 1
x_1_96 4.1238089803233743e+02
s_1_96 0
z_1_96 0
x_1_97 0
s_1_97 9.0882729346049018e-01
z_1_97 1
x_1_98 4.0977408602554351e+02
s_1_98 0
z_1_98 0
x_1_99 0
s_1_99 5.5066881762468256e-01
z_1_99 1
x_1_100 4.1389727062731981e+02
s_1_100 0
z_1_100 0
x_1_101 0
s_1_101 8.8535682910878677e-01
z_1_101 1
x_1_102 4.1367620491236448e+02
s_1_102 0
z_1_102 0
x_1_103 410.98605689127
s_1_103 0
z_1_103 0
x_1_104 4.0496691279672086e+02
s_1_104 0
z_1_104 0
x_1_105 409.541897745803
s_1_105 0
z_1_105 0
x_1_106 0
s_1_106 1.1488092397885339e+00
z_1_106 1
x_1_107 0
s_1_107 9.9845250936414232e-01
z_1_107 1
x_1_108 4.1029008598934161e+02
s_1_108 0
z_1_108 0
x_1_109 4.0746949255652726e+02
s_1_109 0
z_1_109 0
x_1_110 4.1165266827307642e+02
s_1_110 0
z_1_110 0
x_1_111 0
s_1_111 8.8611182387103327e-01
z_1_111 1
x_1_112 4.0938852565066190e+02
s_1_112 0
z_1_112 0
x_1_113 4.1301373402774334e+02
s_1_113 0
z_1_113 0
x_1_114 4.0858237277809530e+02
s_1_114 0
z_1_114 0
x_1_115 4.0870325232297182e+02
s_1_115 0
z_1_115 0
x_1_116 4.1360452125594020e+02
s_1_116 0
z_1_116 0
x_1_117 4.1050961210019886e+02
s_1_117 0
z_1_117 0
x_1_118 4.1313033861294389e+02
s_1_118 0
z_1_118 0
x_1_119 4.0870730015123263e+02
s_1_119 0
z_1_119 0
x_1_120 4.0819898977037519e+02
s_1_120 0
z_1_120 0
x_1_121 4.1017662265058607e+02
s_1_121 0
z_1_121 0
x_1_122 0
s_1_122 1.2515114666312002e+00
z_1_122 1
x_1_123 4.1019972001435235e+02
s_1_123 0
z_1_123 0
x_1_124 0
s_1_124 9.5570031780880527e-01
z_1_124 1
x_1_125 4.1422762971371412e+02
s_1_125 0
z_1_125 0
x_1_126 0
s_1_126 8.2633824527147226e-01
z_1_126 1
x_1_127 4.0749115696875378e+02
s_1_127 0
z_1_127 0
x_1_128 0
s_1_128 5.0723776934682974e-01
z_1_128 1
x_1_129 4.0852446908270940e+02
s_1_129 0
z_1_129 0
x_1_130 4.0980966834910214e+02
s_1_130 0
z_1_130 0
x_1_131 0
s_1_131 1.1803644898318453e+00
z_1_131 1
x_1_132 0
s_1_132 1.3617132440267596e+00
z_1_132 1
x_1_133 0
s_1_133 1.5935512178111821e+00
z_1_133 1
x_1_134 4.1192252929881215e+02
s_1_134 0
z_1_134 0
x_1_135 0
s_1_135 1.0557626949594123e+00
z_1_135 1
x_1_136 4.0796903310250491e+02
s_1_136 0
z_1_136 0
x_1_137 4.1302271362207830e+02
s_1_137 0
z_1_137 0
x_1_138 4.1266494815424085e+02
s_1_138 0
z_1_138 0
x_1_139 0
s_1_139 8.8224826930672862e-01
z_1_139 1
x_1_140 4.1376018369570374e+02
s_1_140 0
z_1_140 0
x_1_141 0
s_1_141 1.3131332053962979e+00
z_1_141 1
x_1_142 0
s_1_142 1.9116788872197503e+00
z_1_142 1
x_1_143 4.0807372943271184e+02
s_1_143 0
z_1_143 0
x_1_144 4.1273038905765861e+02
s_1_144 0
z_1_144 0
x_1_145 4.1169466994050890e+02
s_1_145 0
z_1_145 0
x_1_146 0
s_1_146 9.2809576564468443e-01
z_1_146 1
x_1_147 0
s_1_147 9.7901450049539562e-01
z_1_147 1
x_1_148 0
s_1_148 8.1148536747787148e-01
z_1_148 1
x_1_149 4.0823482026718557e+02
s_1_149 0
z_1_149 0
x_1_150 0
s_1_150 3.6839022919230047e-01
z_1_150 1
x_1_151 0
s_1_151 1.4481833354220726e+00
z_1_151 1
x_1_152 0
s_1_152 9.1283356770873070e-01
z_1_152 1
x_1_153 4.0931672817096114e+02
s_1_153 0
z_1_153 0
x_1_154 0
s_1_154 1.0271549922763370e+00
z_1_154 1
x_1_155 0
s_1_155 1.0021176273730816e+00
z_1_155 1
x_1_156 4.1219862037431449e+02
s_1_156 0
z_1_156 0
x_1_157 4.1091698627732694e+02
s_1_157 0
z_1_157 0
x_1_158 4.0861794674955308e+02
s_1_158 0
z_1_158 0
x_1_159 4.0901236347109079e+02
s_1_159 0
z_1_159 0
x_2_0 2.2406505224360924e+05
